c Random generated cnf formula, satisfiable: true
p cnf 10 50
-2 -8 -7 0
-7 2 -3 0
8 -7 -3 0
2 -5 10 0
1 -7 -2 0
5 6 2 0
-10 -4 -5 0
8 4 -3 0
7 6 -4 0
-10 4 3 0
-6 3 8 0
-5 -9 -8 0
-2 -5 7 0
10 -2 7 0
3 4 1 0
-8 10 6 0
-1 -9 6 0
-8 -6 -7 0
-9 1 6 0
2 -6 -9 0
-8 -10 -6 0
10 8 -2 0
-9 1 10 0
-6 7 3 0
-9 7 -4 0
4 -2 10 0
3 -5 -4 0
-3 -5 6 0
-7 2 -10 0
-5 10 -7 0
-10 1 5 0
3 -4 9 0
-10 6 2 0
-9 -6 4 0
-7 8 -1 0
6 5 3 0
-6 8 10 0
-4 -2 7 0
-7 -8 -6 0
4 6 -1 0
5 1 7 0
-2 8 -3 0
5 -10 -6 0
-4 -10 8 0
2 -10 -5 0
-5 4 -1 0
-3 4 8 0
5 6 10 0
-7 10 -6 0
-9 -6 5 0
